# vtk DataFile Version 2.0 
Discrete Dislocations 
ASCII 

DATASET UNSTRUCTURED_GRID 
POINTS 142 float
0.0 0.0389156038116 0.0
1.2359443673 0.0755041833484 0.0
1.23588408754 0.924512142742 0.0
0.0 0.961015129865 0.0
0.116644986026 0.0387380793704 0.0
0.23340421181 0.0382328208119 0.0
0.350581701545 0.0374801504462 0.0
0.468523530318 0.0364276186395 0.0
0.587573904359 0.0353272510983 0.0
0.707925128637 0.0348758372272 0.0
0.832366147996 0.0354032810299 0.0
0.959915992731 0.0403531530909 0.0
1.0956761731 0.053371113958 0.0
1.1832697475 0.164144596106 0.0
1.16046859026 0.245685360092 0.0
1.14979892105 0.32969583279 0.0
1.14456489661 0.413850284537 0.0
1.14303716315 0.499685044071 0.0
1.14451002266 0.586203879086 0.0
1.14970415803 0.670410391487 0.0
1.16044893405 0.754466319947 0.0
1.18318333928 0.835894270999 0.0
1.09563791149 0.946595547849 0.0
0.960000749379 0.959692370569 0.0
0.832406841237 0.964491099149 0.0
0.707957211355 0.965199908955 0.0
0.587200878442 0.964604330378 0.0
0.468466788062 0.963601650568 0.0
0.350565158022 0.962471263411 0.0
0.233392500216 0.961703597995 0.0
0.116637500466 0.961195794076 0.0
0.0 0.869214099383 0.0
0.0 0.777276017862 0.0
0.0 0.685076430045 0.0
0.0 0.592602843253 0.0
0.0 0.500000000002 0.0
0.0 0.407328784121 0.0
0.0 0.314852343001 0.0
0.0 0.222640936551 0.0
0.0 0.130710943376 0.0
0.57577456855 0.499898000578 0.0
0.815950402198 0.695619976399 0.0
0.340234286281 0.693013135623 0.0
0.815998489304 0.304427232199 0.0
0.340215765116 0.3069170242 0.0
0.578606387548 0.767788989008 0.0
0.249070269881 0.497176177738 0.0
0.897022481184 0.502788930086 0.0
0.585676217629 0.232012768632 0.0
0.967731210399 0.806265106839 0.0
0.198854667613 0.805012880345 0.0
0.96781795989 0.193731307759 0.0
0.19887361562 0.194913397241 0.0
0.749677193987 0.828722165913 0.0
0.175413267338 0.630606345648 0.0
0.419428514917 0.824260469849 0.0
0.971459505078 0.629100654059 0.0
0.972266952942 0.370946943245 0.0
0.176201920868 0.369260502849 0.0
0.419561139848 0.175117106147 0.0
0.749867667718 0.171900516454 0.0
0.653792558884 0.632755643554 0.0
0.420707440071 0.567486811661 0.0
0.734608656166 0.436567485638 0.0
0.499532789375 0.36494058761 0.0
0.499699840658 0.64995811568 0.0
0.763971486331 0.555532130633 0.0
0.399736831314 0.438543579936 0.0
0.645121795222 0.342654517555 0.0
0.539224005667 0.864375462325 0.0
0.12712173414 0.463265786422 0.0
1.01661395884 0.535737346371 0.0
0.63245751903 0.134418524613 0.0
0.870968000214 0.87733806946 0.0
0.113683192048 0.7213150732 0.0
1.03952997561 0.28455866492 0.0
0.304851858139 0.127214766758 0.0
1.03764691605 0.716724333169 0.0
0.303388799048 0.871084661282 0.0
0.872312315743 0.124354560988 0.0
0.11572605204 0.277473854932 0.0
0.700580303075 0.732151107492 0.0
0.296370486263 0.600443348898 0.0
0.853728492515 0.401954079372 0.0
0.460246577482 0.270275243856 0.0
0.457403808162 0.730701147973 0.0
0.856167980439 0.599203845116 0.0
0.294487013506 0.400961543467 0.0
0.702172911698 0.266053737103 0.0
1.06488221113 0.863161833275 0.0
0.116562641464 0.869516121843 0.0
1.06496552552 0.136808829555 0.0
0.11657173258 0.130413604434 0.0
0.668511751526 0.890146151024 0.0
0.096533693592 0.564020846055 0.0
1.04740663815 0.438537743435 0.0
0.504567036714 0.11181447247 0.0
0.914580512427 0.706381730783 0.0
0.32522015004 0.772641016959 0.0
0.838162443985 0.223420660376 0.0
0.240551780325 0.294847392692 0.0
0.847026738066 0.783796911876 0.0
0.231227951639 0.711442217798 0.0
0.924033797354 0.287360048717 0.0
0.31727669063 0.220012862856 0.0
0.561856219812 0.584356823721 0.0
0.666888057687 0.539076987855 0.0
0.472791380217 0.491626524847 0.0
0.638452091291 0.430665941237 0.0
0.748164840152 0.632738611385 0.0
0.410086244674 0.644421426652 0.0
0.739814705888 0.355995990862 0.0
0.402002294985 0.363888166386 0.0
0.76591264032 0.905899743706 0.0
0.0770867596959 0.638722404449 0.0
1.06947678247 0.367311760659 0.0
0.409712699016 0.0975820830962 0.0
1.06249333576 0.627975326986 0.0
0.758841463285 0.099255276479 0.0
0.416301236847 0.897133629455 0.0
0.0837984089798 0.36642043271 0.0
0.971871239218 0.889276908516 0.0
0.0932659475014 0.795884021686 0.0
1.07047917717 0.213666335584 0.0
0.210063534487 0.111738951801 0.0
1.07040716319 0.786296397566 0.0
0.971970851484 0.110693282129 0.0
0.210047699161 0.888193424917 0.0
0.0932723988278 0.204040336792 0.0
0.588018301988 0.687305766249 0.0
0.349393586369 0.508071901675 0.0
0.815433589476 0.495642455984 0.0
0.574067911416 0.299416408647 0.0
0.647685154064 0.816959127228 0.0
0.193431087295 0.554860119474 0.0
0.956608212932 0.450103032307 0.0
0.520458867309 0.184464778196 0.0
0.498493687683 0.796883642066 0.0
0.211756145047 0.432717060371 0.0
0.934997079337 0.566594151004 0.0
0.667887182939 0.200893453522 0.0
0.531686629903 0.436335465007 0.0

CELLS 242 968
3 108 141 68
3 1 13 91
3 0 4 92
3 2 22 89
3 3 31 90
3 1 91 12
3 0 92 39
3 2 89 21
3 3 90 30
3 68 141 64
3 65 129 85
3 66 131 86
3 67 130 87
3 68 132 88
3 62 107 105
3 62 105 65
3 63 106 108
3 63 66 106
3 129 45 85
3 130 46 87
3 131 47 86
3 132 48 88
3 54 82 102
3 53 81 101
3 59 84 104
3 57 83 103
3 42 102 82
3 41 101 81
3 44 104 84
3 43 103 83
3 56 97 86
3 55 98 85
3 60 99 88
3 58 100 87
3 64 141 67
3 26 27 69
3 35 36 70
3 17 18 71
3 8 9 72
3 18 117 71
3 9 118 72
3 27 119 69
3 36 120 70
3 63 131 66
3 64 132 68
3 41 86 97
3 42 85 98
3 43 88 99
3 44 87 100
3 62 65 110
3 64 67 112
3 67 141 107
3 40 105 107
3 40 108 106
3 56 71 117
3 60 72 118
3 55 69 119
3 58 70 120
3 23 24 73
3 32 33 74
3 14 15 75
3 5 6 76
3 19 20 77
3 10 11 79
3 28 29 78
3 37 38 80
3 26 69 93
3 35 70 94
3 17 71 95
3 8 72 96
3 56 77 97
3 55 78 98
3 60 79 99
3 58 80 100
3 45 133 69
3 46 134 70
3 47 135 71
3 48 136 72
3 61 109 81
3 62 110 82
3 63 111 83
3 64 112 84
3 49 73 101
3 50 74 102
3 51 75 103
3 52 76 104
3 41 81 109
3 42 82 110
3 43 83 111
3 44 84 112
3 61 106 109
3 66 109 106
3 63 108 111
3 68 111 108
3 25 26 93
3 34 35 94
3 16 17 95
3 7 8 96
3 45 137 85
3 47 139 86
3 46 138 87
3 48 140 88
3 23 73 121
3 32 74 122
3 14 75 123
3 5 76 124
3 20 125 77
3 11 126 79
3 29 127 78
3 38 128 80
3 54 102 74
3 53 101 73
3 59 104 76
3 57 103 75
3 49 97 77
3 50 98 78
3 51 99 79
3 52 100 80
3 13 14 123
3 22 23 121
3 4 5 124
3 31 32 122
3 20 21 125
3 11 12 126
3 29 30 127
3 38 39 128
3 69 133 93
3 70 134 94
3 71 135 95
3 72 136 96
3 13 123 91
3 4 124 92
3 22 121 89
3 31 122 90
3 21 89 125
3 12 91 126
3 30 90 127
3 39 92 128
3 49 101 97
3 50 102 98
3 51 103 99
3 52 104 100
3 61 81 129
3 62 82 130
3 63 83 131
3 64 84 132
3 45 69 137
3 46 70 138
3 55 137 69
3 58 138 70
3 47 71 139
3 48 72 140
3 56 139 71
3 60 140 72
3 24 113 73
3 33 114 74
3 55 119 78
3 53 73 113
3 54 74 114
3 56 117 77
3 58 120 80
3 60 118 79
3 28 78 119
3 19 77 117
3 37 80 120
3 10 79 118
3 15 115 75
3 6 116 76
3 57 75 115
3 59 76 116
3 45 129 81
3 46 130 82
3 47 131 83
3 48 132 84
3 61 129 105
3 65 105 129
3 62 130 107
3 67 107 130
3 49 121 73
3 50 122 74
3 49 77 125
3 51 123 75
3 50 78 127
3 52 124 76
3 51 79 126
3 52 80 128
3 53 133 81
3 45 81 133
3 54 134 82
3 46 82 134
3 47 83 135
3 57 135 83
3 59 136 84
3 48 84 136
3 65 85 110
3 42 110 85
3 66 86 109
3 41 109 86
3 67 87 112
3 68 88 111
3 44 112 87
3 43 111 88
3 41 97 101
3 42 98 102
3 43 99 103
3 44 100 104
3 49 89 121
3 50 90 122
3 49 125 89
3 50 127 90
3 51 91 123
3 51 126 91
3 52 92 124
3 52 128 92
3 40 106 105
3 61 105 106
3 25 93 113
3 34 94 114
3 53 113 93
3 54 114 94
3 16 95 115
3 7 96 116
3 57 115 95
3 59 116 96
3 24 25 113
3 33 34 114
3 15 16 115
3 6 7 116
3 18 19 117
3 9 10 118
3 27 28 119
3 36 37 120
3 55 85 137
3 56 86 139
3 58 87 138
3 60 88 140
3 53 93 133
3 54 94 134
3 57 95 135
3 59 96 136
3 40 141 108
3 40 107 141

CELL_TYPES 242
5
5
5
5
5
5
5
5
5
5
5
5
5
5
5
5
5
5
5
5
5
5
5
5
5
5
5
5
5
5
5
5
5
5
5
5
5
5
5
5
5
5
5
5
5
5
5
5
5
5
5
5
5
5
5
5
5
5
5
5
5
5
5
5
5
5
5
5
5
5
5
5
5
5
5
5
5
5
5
5
5
5
5
5
5
5
5
5
5
5
5
5
5
5
5
5
5
5
5
5
5
5
5
5
5
5
5
5
5
5
5
5
5
5
5
5
5
5
5
5
5
5
5
5
5
5
5
5
5
5
5
5
5
5
5
5
5
5
5
5
5
5
5
5
5
5
5
5
5
5
5
5
5
5
5
5
5
5
5
5
5
5
5
5
5
5
5
5
5
5
5
5
5
5
5
5
5
5
5
5
5
5
5
5
5
5
5
5
5
5
5
5
5
5
5
5
5
5
5
5
5
5
5
5
5
5
5
5
5
5
5
5
5
5
5
5
5
5
5
5
5
5
5
5
5
5
5
5
5
5
5
5
5
5
5
5
5
5
5
5
5
5

CELL_DATA 242 
SCALARS stress FLOAT 
LOOKUP_TABLE default
21893847.9357
51542545.1074
32668067.4397
75471631.5101
32729259.2993
75475948.0008
32748653.2218
51642475.3207
32652806.3007
27756928.0607
23330828.445
17976306.9785
24369200.6264
20833876.0249
28933620.6785
25970495.3168
22703583.102
25019452.4148
28155867.2203
27531740.9254
18343493.7063
22566919.7508
32655513.1774
32325258.9807
34497435.0935
25981413.1402
30868710.3566
30626326.042
32570775.9702
27661830.5947
23854109.4538
31838990.2037
29745476.6028
30776365.8816
23946526.1738
40085703.0276
33531501.8682
42257939.3747
43265565.0006
31305138.7153
36481842.206
32062982.7714
28313195.5
16946875.4638
19837603.261
24396836.2732
28520815.9947
26994855.718
28082538.3078
18502613.7274
19384988.4146
17812005.8641
20939339.6724
20186616.1115
26176068.5701
30588189.8179
28537694.5958
25194387.543
52484054.7123
31101708.6831
42689690.964
32908243.6276
43221829.6551
53175313.8854
33487348.513
31619893.0385
40202879.0221
33149398.1201
36964349.3862
39310267.9969
27690372.7857
31915126.4022
33794224.5034
30277428.6314
27048844.3616
24785952.2388
22993125.5566
26799585.4605
22380608.196
24664779.8771
20447678.5876
24720231.9514
31189119.0045
31751658.1355
25125251.0379
32450881.7705
23807733.5395
23827195.6343
22452951.1734
25399554.471
20479294.155
17022633.2853
17613051.3024
19581751.1185
33890279.2553
25617032.0712
33237118.1154
30800205.9469
19085963.4071
15214804.7228
17983515.9227
18792605.9842
32357979.1406
22041613.7139
22397463.2288
22722044.9296
22140317.3767
32102956.884
22500587.8193
21838526.1137
29315329.1773
32811551.0116
30914795.3342
26603788.4008
27110088.4836
35674162.9169
34040890.7257
34877878.7835
38788156.2147
53927232.5859
26278039.8275
25976551.2643
38970794.7126
54118393.2169
26269076.7624
25993502.7928
29148626.2251
26737823.8817
26108154.8069
29165611.3478
31099514.8832
26355412.7544
46984480.2607
26005514.7062
31059511.6634
46930554.9374
26341840.1725
26020867.3982
31287431.0859
32095812.3027
31314713.806
32083517.2927
23330005.9165
25780422.4039
22765976.366
25809094.7011
20264013.114
18438011.0107
20006256.3491
18168078.562
16296736.0768
20424230.7856
17247340.5832
20563305.4521
32385286.5268
23536047.4193
26162600.9844
30403206.0563
24489575.1585
23735842.2228
24123557.1779
29724337.8021
29008545.8383
29373371.2722
26545078.7161
35951645.1391
26640732.4599
25757875.178
24060586.9999
26400563.7252
25866207.8702
26597550.3337
18057431.0062
22447674.0243
19818142.192
20640479.3837
21812548.656
19810951.0603
31536575.1777
24159094.6506
23868505.1699
24195963.0773
24630513.6431
24952711.0448
31054780.3607
23854527.1362
28462601.7633
24714904.6445
24119098.9729
23347808.3628
19717121.7256
24142045.5273
27871590.7889
24871992.2951
20208460.7229
23128956.7804
16863124.4904
21386533.8707
21349649.3381
19715322.5234
23277802.4715
21724229.8554
20341009.0341
24264909.0655
20106844.5028
24272455.0681
28455381.1976
22982393.7669
22850803.5476
23166364.2806
22855351.9825
28417016.0926
23181132.9859
23001071.2454
18804863.8395
21877151.738
24817285.8374
19108604.9681
25669394.393
20596115.3781
21648420.2769
21685784.3329
22031490.095
23044985.6289
31515217.6811
20632765.3142
28740874.0956
23297191.4137
30970125.5394
34129353.6475
25218179.799
22423049.3856
18855666.3731
16144703.4106
17719770.8102
18990000.4952
23155014.397
20241181.633
19131243.9296
22565968.9196
16668413.9801
14974658.974

POINT_DATA 142 
SCALARS displacement FLOAT 
LOOKUP_TABLE default
0.0389156038116
0.247730955194
0.247668567539
0.0389848701353
0.0421627128293
0.0507699709857
0.0629545090423
0.0776044174457
0.0944309451138
0.113420268972
0.137018938265
0.164928777646
0.202824161585
0.194170877216
0.16684519947
0.152713978509
0.145226856032
0.143037509903
0.145167074787
0.152600392741
0.166784820819
0.19407648049
0.202796025414
0.164999832703
0.137085570524
0.113427535546
0.0941108209965
0.0775405758854
0.0629701617886
0.0508101710012
0.0422205260404
0.0307859006168
0.0227239821381
0.014923569956
0.00739715674824
0.0
0.0073287841189
0.0148523429994
0.0226409365503
0.0307109433753
0.0757746372006
0.109415988967
0.049439283462
0.10946878834
0.0494016129859
0.0833772152391
0.0339508080256
0.11214260105
0.0843840768671
0.140172523159
0.0374610014853
0.140257479752
0.0374272193177
0.110813364051
0.0262977619672
0.0647977817619
0.123837690516
0.123950252476
0.026369511938
0.0648676851028
0.11090509795
0.0871214371487
0.0569513608035
0.0945186854135
0.0682956291529
0.0687816067785
0.0978493743692
0.0541479986542
0.086872747931
0.0829232632769
0.0176691933021
0.126346922599
0.0961605266037
0.134242212907
0.0239153405194
0.139215597852
0.0529398417025
0.139101089672
0.0527054880188
0.134337942905
0.0241098449991
0.0973494497519
0.0412797077074
0.108615528416
0.0662208035087
0.065913793724
0.109030934349
0.0409458124499
0.0977124469511
0.168854991989
0.0348580975552
0.168929871022
0.0348007727684
0.102937250131
0.0142416355474
0.130849333978
0.0790026726653
0.122013780386
0.05055566001
0.118632251502
0.0372011750869
0.120505735057
0.0363756267157
0.123700220859
0.0498408606496
0.0748380469965
0.0865854368189
0.0631159647201
0.0836234375067
0.0982028463195
0.0571010467744
0.0976394481597
0.0557608569752
0.119396732088
0.0153697782405
0.13695056246
0.0671608696053
0.135646676794
0.117864603616
0.0677694248364
0.0156856309639
0.154853650611
0.0276268304017
0.154193577938
0.043807756947
0.154131482247
0.154945366998
0.043845929009
0.0275636595731
0.0810753911676
0.0472946585396
0.103194822715
0.0797600464944
0.0955835351004
0.0268873750597
0.11946197575
0.0778181889195
0.0738983627404
0.0295019615677
0.117456982623
0.0974941799636
0.0707641249128
